1 1 -2 0
1 -1 3 0
1 -1 4 0
1 -2 -4 0
1 2 -5 0
1 -6 7 0
1 -6 -8 0
1 -6 9 0
1 6 5 0
1 -10 11 0
1 -4 12 0
1 -4 13 0
1 -4 10 0
1 4 -14 0
1 -4 -15 0
1 -4 1 0
1 -16 12 0
1 3 17 0
1 3 -14 0
1 3 -18 0
1 3 1 0
1 -5 -19 0
1 -5 20 0
1 -5 -14 0
1 5 -1 0
1 15 -21 0
1 -15 13 0
1 15 7 0
1 -15 8 0
1 -13 21 0
1 13 4 0
1 -13 -8 0
1 13 15 0
1 13 -16 0
1 -22 4 0
1 22 -16 0
1 12 -23 0
1 12 -24 0
1 12 7 0
1 12 -16 0
1 8 25 0
1 -8 12 0
1 -8 26 0
1 -8 -22 0
1 -8 -6 0
1 -21 27 0
1 -7 -23 0
1 7 -28 0
1 7 12 0
1 -7 13 0
1 7 -29 0
1 -23 28 0
1 -23 -19 0
1 -23 30 0
1 -31 -32 0
1 33 -31 0
1 -34 25 0
1 -34 21 0
1 -34 -35 0
1 34 24 0
1 34 -29 0
1 -34 -8 0
1 -34 36 0
1 -25 -21 0
1 25 -24 0
1 -25 -32 0
1 -25 -36 0
1 36 25 0
1 36 -12 0
1 -36 -37 0
1 24 33 0
1 24 -12 0
1 24 -38 0
1 -24 31 0
1 -32 35 0
1 -32 -30 0
1 32 34 0
1 -32 -39 0
1 -32 40 0
1 35 37 0
1 35 22 0
1 -41 42 0
1 -41 -43 0
1 -41 1 0
1 -41 44 0
1 45 46 0
1 -45 2 0
1 45 47 0
1 -45 43 0
1 -9 -48 0
1 9 11 0
1 11 43 0
1 42 -17 0
1 42 -49 0
1 42 -18 0
1 42 -41 0
1 43 50 0
1 43 17 0
1 -43 -9 0
1 -46 -50 0
1 -46 -51 0
1 46 11 0
1 -46 52 0
1 47 -45 0
1 47 49 0
1 18 48 0
1 -18 -52 0
1 -18 -5 0
1 -17 3 0
1 -17 43 0
1 17 18 0
1 -53 20 0
1 53 48 0
1 -53 43 0
1 -53 -22 0
1 20 -54 0
1 -20 3 0
1 20 -53 0
1 55 28 0
1 55 -19 0
1 -55 -56 0
1 55 -29 0
1 54 -55 0
1 54 -57 0
1 -48 50 0
1 48 -58 0
1 -48 -11 0
1 48 59 0
1 -48 49 0
1 59 -17 0
1 -59 -53 0
1 -14 -19 0
1 -14 -60 0
1 -14 -7 0
1 -14 61 0
1 -14 16 0
1 19 -55 0
1 19 3 0
1 19 -4 0
1 -19 -54 0
1 -19 61 0
1 19 -5 0
1 29 -23 0
1 29 -7 0
1 29 34 0
1 29 62 0
1 28 -63 0
1 28 23 0
1 28 64 0
1 28 -29 0
1 -28 65 0
1 -66 67 0
1 66 -29 0
1 -66 -27 0
1 61 28 0
1 -61 20 0
1 61 -68 0
1 61 -14 0
1 -60 19 0
1 60 -20 0
1 60 -69 0
1 -60 -14 0
1 -62 70 0
1 -62 -71 0
1 30 -63 0
1 30 21 0
1 -30 -57 0
1 30 -64 0
1 30 65 0
1 30 -27 0
1 -27 63 0
1 27 66 0
1 -27 30 0
1 -27 -32 0
1 27 -61 0
1 -67 -63 0
1 -67 72 0
1 -67 35 0
1 67 -66 0
1 67 40 0
1 40 -63 0
1 -40 35 0
1 40 -67 0
1 -64 -73 0
1 64 -67 0
1 -64 30 0
1 64 4 0
1 -64 -40 0
1 64 27 0
1 63 -28 0
1 63 -73 0
1 63 -67 0
1 63 -74 0
1 -63 -75 0
1 63 27 0
1 76 -3 0
1 -76 -27 0
1 65 -29 0
1 65 -77 0
1 -65 78 0
1 -65 -79 0
1 65 -27 0
1 -37 -80 0
1 -37 81 0
1 -37 -36 0
1 -75 -63 0
1 75 82 0
1 -75 72 0
1 -75 37 0
1 75 -64 0
1 -83 63 0
1 -83 -84 0
1 -83 64 0
1 -83 -39 0
1 74 83 0
1 74 -39 0
1 -26 -83 0
1 26 85 0
1 -72 21 0
1 -72 -86 0
1 -72 -87 0
1 -72 40 0
1 81 86 0
1 -81 -88 0
1 81 -67 0
1 81 75 0
1 81 40 0
1 -82 67 0
1 -82 89 0
1 82 -74 0
1 90 72 0
1 91 -72 0
1 91 38 0
1 -91 26 0
1 91 77 0
1 92 84 0
1 92 -26 0
1 -93 -92 0
1 -93 -84 0
1 93 -26 0
1 -93 -89 0
1 94 -90 0
1 -94 95 0
1 -94 96 0
1 -38 97 0
1 38 92 0
1 -38 91 0
1 38 74 0
1 -39 -87 0
1 -84 92 0
1 84 -98 0
1 84 95 0
1 84 87 0
1 -44 99 0
1 44 -100 0
1 -99 -101 0
1 99 -44 0
1 -102 103 0
1 -102 -104 0
1 -102 105 0
1 -104 106 0
1 104 -102 0
1 100 -51 0
1 -100 99 0
1 100 102 0
1 103 107 0
1 -103 -104 0
1 -103 108 0
1 -103 109 0
1 103 -102 0
1 110 -101 0
1 -110 -104 0
1 -110 108 0
1 -110 -111 0
1 -110 102 0
1 110 -44 0
1 -101 110 0
1 -101 108 0
1 -52 -46 0
1 52 112 0
1 52 18 0
1 -52 113 0
1 52 105 0
1 -112 -114 0
1 112 -52 0
1 109 115 0
1 -109 51 0
1 109 -103 0
1 109 -53 0
1 109 -111 0
1 109 116 0
1 51 46 0
1 51 20 0
1 -51 -117 0
1 -51 109 0
1 51 -118 0
1 -105 -119 0
1 -105 112 0
1 -105 -109 0
1 105 120 0
1 -106 51 0
1 106 -105 0
1 -106 52 0
1 -118 -121 0
1 118 117 0
1 118 104 0
1 118 122 0
1 117 123 0
1 117 108 0
1 117 -109 0
1 -49 -115 0
1 49 50 0
1 49 106 0
1 -49 -14 0
1 49 108 0
1 -49 116 0
1 50 115 0
1 -50 48 0
1 -50 -107 0
1 -50 -105 0
1 -50 116 0
1 124 -125 0
1 124 -106 0
1 -124 126 0
1 124 -127 0
1 -128 115 0
1 128 125 0
1 128 48 0
1 -128 -126 0
1 128 -59 0
1 128 105 0
1 -115 50 0
1 -115 -126 0
1 -115 -124 0
1 -126 128 0
1 126 -129 0
1 126 -57 0
1 126 49 0
1 126 109 0
1 116 -119 0
1 116 -50 0
1 116 130 0
1 -116 -131 0
1 116 49 0
1 -116 132 0
1 133 -50 0
1 133 -109 0
1 -57 125 0
1 -57 48 0
1 -57 134 0
1 57 -127 0
1 57 135 0
1 57 -54 0
1 -136 -115 0
1 136 -119 0
1 136 126 0
1 -136 127 0
1 -136 59 0
1 69 115 0
1 69 125 0
1 69 -67 0
1 -69 -126 0
1 -69 127 0
1 -71 -60 0
1 71 -126 0
1 -71 137 0
1 -138 -42 0
1 138 139 0
1 138 124 0
1 138 71 0
1 -135 -136 0
1 -135 -80 0
1 135 -124 0
1 135 140 0
1 125 141 0
1 125 127 0
1 125 124 0
1 -125 142 0
1 -125 -132 0
1 -125 -71 0
1 127 -141 0
1 -127 -69 0
1 -127 47 0
1 127 -143 0
1 127 -71 0
1 80 -56 0
1 80 60 0
1 80 -141 0
1 -80 -144 0
1 80 -62 0
1 -140 58 0
1 -140 66 0
1 -140 144 0
1 140 -75 0
1 139 -70 0
1 139 58 0
1 139 -135 0
1 -139 144 0
1 -78 58 0
1 -78 145 0
1 78 -146 0
1 -78 -76 0
1 78 74 0
1 -78 147 0
1 -56 -148 0
1 56 89 0
1 -56 -78 0
1 149 -80 0
1 149 -77 0
1 -149 78 0
1 -149 -140 0
1 58 -48 0
1 58 -150 0
1 -58 151 0
1 58 139 0
1 58 -69 0
1 58 -78 0
1 144 152 0
1 144 58 0
1 -144 151 0
1 -144 80 0
1 -144 -59 0
1 -144 -142 0
1 -144 71 0
1 -73 -56 0
1 73 151 0
1 -73 -146 0
1 -73 -77 0
1 73 -68 0
1 77 -82 0
1 -77 -81 0
1 -77 -91 0
1 -77 -149 0
1 88 82 0
1 -88 92 0
1 -88 150 0
1 88 153 0
1 88 81 0
1 -88 149 0
1 -88 -70 0
1 -89 -56 0
1 -146 -73 0
1 -146 -68 0
1 -68 -154 0
1 -68 155 0
1 -68 -77 0
1 68 78 0
1 -68 61 0
1 145 70 0
1 145 156 0
1 145 -148 0
1 145 -77 0
1 70 157 0
1 70 88 0
1 -70 -156 0
1 -70 148 0
1 -70 -89 0
1 -70 -62 0
1 86 -158 0
1 86 39 0
1 -86 68 0
1 -86 -79 0
1 -87 -26 0
1 -159 160 0
1 159 -157 0
1 -159 84 0
1 159 153 0
1 159 79 0
1 -155 -159 0
1 155 -161 0
1 155 84 0
1 155 153 0
1 155 -162 0
1 -155 163 0
1 155 -85 0
1 -155 -68 0
1 158 -88 0
1 -158 -164 0
1 -158 95 0
1 -160 164 0
1 -160 -165 0
1 -160 -158 0
1 -160 89 0
1 160 166 0
1 -153 159 0
1 -153 167 0
1 79 -168 0
1 79 -88 0
1 -79 -164 0
1 -79 156 0
1 -79 -155 0
1 -79 -87 0
1 -79 -89 0
1 79 65 0
1 97 169 0
1 -97 84 0
1 97 163 0
1 97 -39 0
1 97 -94 0
1 95 -97 0
1 95 -169 0
1 95 -163 0
1 -95 -85 0
1 -170 -169 0
1 -170 161 0
1 -170 165 0
1 -170 163 0
1 -170 -85 0
1 -165 -160 0
1 165 169 0
1 -165 -96 0
1 -85 159 0
1 85 -26 0
1 -161 -155 0
1 161 85 0
1 -161 -171 0
1 -161 172 0
1 -161 -170 0
1 163 159 0
1 -163 95 0
1 -163 -81 0
1 -169 -95 0
1 -173 161 0
1 173 174 0
1 -173 166 0
1 -175 98 0
1 175 164 0
1 175 173 0
1 172 -176 0
1 172 177 0
1 -176 174 0
1 -176 -178 0
1 -176 177 0
1 96 174 0
1 96 165 0
1 -96 179 0
1 174 -96 0
1 -174 180 0
1 -174 175 0
1 -174 -165 0
1 177 -181 0
1 177 39 0
1 98 175 0
1 -98 177 0
1 98 173 0
1 -182 -183 0
1 -182 184 0
1 182 -185 0
1 -182 186 0
1 187 99 0
1 -187 -185 0
1 187 -182 0
1 -188 -189 0
1 188 -185 0
1 -188 190 0
1 -191 -192 0
1 191 104 0
1 191 -184 0
1 191 189 0
1 191 -185 0
1 184 114 0
1 184 -191 0
1 184 187 0
1 184 -182 0
1 186 -114 0
1 186 -111 0
1 186 -182 0
1 183 187 0
1 183 -185 0
1 -183 188 0
1 183 -182 0
1 185 183 0
1 113 114 0
1 113 193 0
1 113 -52 0
1 113 -190 0
1 114 -189 0
1 -114 110 0
1 -111 -194 0
1 111 -109 0
1 -111 -190 0
1 -195 -196 0
1 -195 194 0
1 195 193 0
1 -195 197 0
1 -195 -198 0
1 195 -192 0
1 -195 -190 0
1 -189 -108 0
1 190 199 0
1 190 -200 0
1 -190 -107 0
1 -190 -191 0
1 190 189 0
1 190 -201 0
1 -190 111 0
1 193 200 0
1 193 -114 0
1 193 -191 0
1 -193 -188 0
1 192 -200 0
1 192 -195 0
1 -192 -193 0
1 192 -111 0
1 -192 113 0
1 -108 -196 0
1 108 -100 0
1 108 198 0
1 108 49 0
1 108 118 0
1 -108 -190 0
1 -107 -194 0
1 107 117 0
1 -107 108 0
1 -201 196 0
1 -201 -121 0
1 -201 -117 0
1 201 118 0
1 121 197 0
1 121 -198 0
1 -121 201 0
1 -198 121 0
1 198 -111 0
1 194 119 0
1 194 134 0
1 -194 -111 0
1 -197 107 0
1 -197 -195 0
1 197 202 0
1 -197 203 0
1 197 -204 0
1 196 205 0
1 -196 -206 0
1 196 111 0
1 134 119 0
1 134 207 0
1 -134 -208 0
1 -134 -209 0
1 119 -106 0
1 119 -133 0
1 119 -210 0
1 119 211 0
1 -119 -105 0
1 131 194 0
1 -131 212 0
1 -131 -69 0
1 -131 198 0
1 131 -211 0
1 -131 -122 0
1 -131 120 0
1 131 116 0
1 -131 -137 0
1 -137 -207 0
1 137 131 0
1 211 -213 0
1 -211 131 0
1 211 -201 0
1 211 214 0
1 211 137 0
1 -208 119 0
1 -208 -103 0
1 208 215 0
1 -208 -141 0
1 -208 201 0
1 208 -132 0
1 -210 216 0
1 210 206 0
1 210 -131 0
1 210 134 0
1 210 110 0
1 -207 -119 0
1 207 213 0
1 -207 201 0
1 207 217 0
1 -141 -125 0
1 -141 -208 0
1 141 -123 0
1 -141 -133 0
1 141 126 0
1 141 -122 0
1 141 -120 0
1 -141 132 0
1 -132 125 0
1 132 208 0
1 132 141 0
1 132 127 0
1 132 140 0
1 132 -120 0
1 -218 129 0
1 -218 -147 0
1 218 -130 0
1 -147 212 0
1 147 219 0
1 -147 217 0
1 -120 -220 0
1 120 218 0
1 -120 131 0
1 -120 -105 0
1 212 151 0
1 212 -106 0
1 212 141 0
1 212 221 0
1 212 120 0
1 122 220 0
1 122 -118 0
1 -122 -222 0
1 123 -117 0
1 123 -147 0
1 123 137 0
1 -151 212 0
1 -151 -129 0
1 -142 223 0
1 142 -125 0
1 142 -151 0
1 -142 120 0
1 150 219 0
1 -150 -144 0
1 150 -221 0
1 -150 120 0
1 221 224 0
1 221 225 0
1 221 212 0
1 221 144 0
1 221 120 0
1 223 -226 0
1 223 -227 0
1 223 129 0
1 -129 -223 0
1 129 -227 0
1 -129 228 0
1 129 148 0
1 -129 -221 0
1 -130 150 0
1 -130 219 0
1 -130 229 0
1 -130 230 0
1 219 231 0
1 -219 -133 0
1 219 -232 0
1 227 223 0
1 227 -220 0
1 227 145 0
1 227 -129 0
1 -227 148 0
1 148 224 0
1 148 -129 0
1 -157 -159 0
1 157 -233 0
1 -157 145 0
1 162 -224 0
1 -162 234 0
1 -162 155 0
1 -162 -229 0
1 -162 143 0
1 235 227 0
1 -235 -225 0
1 235 135 0
1 224 -150 0
1 224 236 0
1 -224 143 0
1 224 148 0
1 143 -237 0
1 -143 236 0
1 -143 238 0
1 143 127 0
1 143 221 0
1 154 97 0
1 -154 225 0
1 154 -233 0
1 -154 152 0
1 -154 239 0
1 -156 234 0
1 156 -228 0
1 156 -235 0
1 156 -239 0
1 -167 -225 0
1 -167 239 0
1 167 -79 0
1 240 225 0
1 240 -234 0
1 240 -167 0
1 240 -235 0
1 -240 -239 0
1 -240 79 0
1 -234 157 0
1 -234 -239 0
1 -234 -241 0
1 234 -56 0
1 -234 -166 0
1 -239 154 0
1 -239 157 0
1 239 241 0
1 239 -234 0
1 239 240 0
1 239 -149 0
1 239 242 0
1 -239 167 0
1 233 -154 0
1 233 -58 0
1 -233 -243 0
1 233 152 0
1 233 -167 0
1 -152 -157 0
1 152 236 0
1 -152 -167 0
1 -166 244 0
1 166 239 0
1 -166 245 0
1 -166 79 0
1 164 -244 0
1 -164 236 0
1 164 -158 0
1 -164 163 0
1 -242 -246 0
1 242 -239 0
1 -242 -247 0
1 242 248 0
1 178 -169 0
1 178 -176 0
1 178 -244 0
1 -178 249 0
1 -178 -239 0
1 178 -248 0
1 -250 248 0
1 250 -171 0
1 -248 -178 0
1 248 250 0
1 -244 145 0
1 -244 -164 0
1 244 -251 0
1 -244 -240 0
1 244 252 0
1 -245 -240 0
1 245 -253 0
1 -245 252 0
1 171 161 0
1 171 -98 0
1 171 181 0
1 171 -177 0
1 171 254 0
1 -181 161 0
1 -181 98 0
1 181 250 0
1 -181 -249 0
1 181 246 0
1 -181 -163 0
1 181 -248 0
1 -255 -256 0
1 -255 257 0
1 255 -98 0
1 255 252 0
1 -255 -258 0
1 -255 248 0
1 257 259 0
1 257 -260 0
1 -257 261 0
1 257 258 0
1 -246 262 0
1 246 256 0
1 -246 178 0
1 -246 171 0
1 256 160 0
1 256 -257 0
1 256 -263 0
1 249 -153 0
1 249 264 0
1 -168 -257 0
1 168 249 0
1 168 -264 0
1 168 -79 0
1 179 256 0
1 -179 261 0
1 -179 -246 0
1 179 -253 0
1 179 96 0
1 -180 -265 0
1 180 -98 0
1 -180 179 0
1 -266 256 0
1 266 264 0
1 266 -246 0
1 -266 267 0
1 262 256 0
1 -262 -261 0
1 -262 -258 0
1 268 180 0
1 -268 266 0
1 268 -269 0
1 -261 -262 0
1 -261 -257 0
1 261 -270 0
1 -261 179 0
1 258 271 0
1 258 -262 0
1 258 180 0
1 -258 259 0
1 -258 -257 0
1 -258 163 0
1 -259 -263 0
1 259 258 0
1 -270 272 0
1 -270 268 0
1 270 267 0
1 269 -273 0
1 -269 267 0
1 -274 -275 0
1 274 268 0
1 276 274 0
1 -267 274 0
1 -267 96 0
1 -267 276 0
1 272 262 0
1 272 -274 0
1 272 269 0
1 273 -274 0
1 -273 277 0
1 273 276 0
1 209 -134 0
1 -209 -197 0
1 209 -278 0
1 -209 -192 0
1 200 119 0
1 -200 -196 0
1 200 -279 0
1 200 190 0
1 202 -199 0
1 -202 -280 0
1 202 278 0
1 281 -199 0
1 -281 -196 0
1 281 -282 0
1 281 137 0
1 282 200 0
1 282 216 0
1 282 -202 0
1 -282 -209 0
1 282 217 0
1 -282 -279 0
1 -279 -209 0
1 279 217 0
1 -280 -200 0
1 280 183 0
1 -280 202 0
1 280 -209 0
1 280 -278 0
1 278 -281 0
1 278 -280 0
1 278 283 0
1 206 -194 0
1 206 -284 0
1 206 279 0
1 204 199 0
1 -204 -196 0
1 -204 206 0
1 -204 -284 0
1 204 -285 0
1 204 197 0
1 -216 -199 0
1 -216 -284 0
1 216 -210 0
1 216 279 0
1 217 205 0
1 217 286 0
1 -217 207 0
1 217 216 0
1 217 285 0
1 217 203 0
1 217 287 0
1 -285 288 0
1 -285 -216 0
1 285 -202 0
1 285 214 0
1 -199 -288 0
1 199 -206 0
1 -199 -202 0
1 199 -214 0
1 284 216 0
1 -284 289 0
1 -290 -216 0
1 290 -284 0
1 -290 -192 0
1 290 -204 0
1 -290 291 0
1 213 -286 0
1 -213 -151 0
1 213 285 0
1 213 210 0
1 214 199 0
1 288 -150 0
1 288 -285 0
1 -288 203 0
1 -288 -287 0
1 222 215 0
1 -222 287 0
1 222 -122 0
1 287 -213 0
1 287 -292 0
1 287 -214 0
1 286 293 0
1 286 -213 0
1 286 216 0
1 -286 287 0
1 -203 -288 0
1 -203 216 0
1 -203 214 0
1 -205 -293 0
1 -205 -294 0
1 -205 295 0
1 205 214 0
1 -220 286 0
1 -220 -227 0
1 220 296 0
1 -220 -215 0
1 220 -212 0
1 -220 -219 0
1 -220 287 0
1 220 297 0
1 220 130 0
1 -230 220 0
1 -231 286 0
1 -231 -294 0
1 -231 298 0
1 231 215 0
1 -231 299 0
1 231 300 0
1 231 -297 0
1 229 -286 0
1 229 215 0
1 -229 -300 0
1 229 -219 0
1 -229 -297 0
1 -229 301 0
1 229 -130 0
1 297 228 0
1 -297 -211 0
1 297 302 0
1 297 303 0
1 215 237 0
1 215 -226 0
1 -215 208 0
1 -215 -238 0
1 215 -228 0
1 215 229 0
1 -215 -303 0
1 304 -293 0
1 -304 -288 0
1 304 222 0
1 304 305 0
1 -304 -303 0
1 -298 -306 0
1 -298 -231 0
1 -298 -304 0
1 298 307 0
1 298 222 0
1 226 143 0
1 -226 -130 0
1 228 224 0
1 -228 -156 0
1 228 129 0
1 228 -292 0
1 228 -297 0
1 -228 301 0
1 -228 130 0
1 237 -300 0
1 -237 -238 0
1 237 232 0
1 237 -297 0
1 -238 -299 0
1 -238 -300 0
1 -238 308 0
1 238 297 0
1 309 -231 0
1 -309 236 0
1 -300 -237 0
1 300 310 0
1 -300 311 0
1 -300 238 0
1 300 -247 0
1 -301 226 0
1 -301 310 0
1 -301 299 0
1 301 228 0
1 301 -229 0
1 -301 312 0
1 301 -313 0
1 -299 226 0
1 299 -231 0
1 -299 314 0
1 -299 -303 0
1 -236 -225 0
1 -236 164 0
1 236 -314 0
1 -247 315 0
1 247 -316 0
1 -247 317 0
1 -247 -242 0
1 -316 -300 0
1 -316 308 0
1 -316 317 0
1 -316 152 0
1 -315 -318 0
1 -315 241 0
1 308 237 0
1 308 -315 0
1 -308 238 0
1 308 -129 0
1 308 319 0
1 -308 252 0
1 308 -254 0
1 -308 247 0
1 320 -321 0
1 320 322 0
1 232 -318 0
1 232 -321 0
1 -232 322 0
1 -232 247 0
1 254 315 0
1 -254 317 0
1 254 323 0
1 254 -313 0
1 -254 -245 0
1 241 -324 0
1 241 325 0
1 -241 317 0
1 241 -323 0
1 -252 -324 0
1 -252 -255 0
1 252 245 0
1 -260 315 0
1 -260 -257 0
1 -260 324 0
1 -260 243 0
1 260 -244 0
1 -260 252 0
1 -325 -265 0
1 -325 241 0
1 325 323 0
1 323 316 0
1 -323 326 0
1 323 -235 0
1 -323 247 0
1 324 224 0
1 -324 316 0
1 317 327 0
1 317 -324 0
1 317 -326 0
1 317 -247 0
1 -253 -243 0
1 253 -328 0
1 -253 244 0
1 253 321 0
1 -265 -180 0
1 265 -249 0
1 265 -253 0
1 265 323 0
1 265 -329 0
1 265 -245 0
1 264 243 0
1 264 328 0
1 -264 -249 0
1 -264 -330 0
1 -331 -327 0
1 331 328 0
1 -331 332 0
1 -331 -323 0
1 -331 -333 0
1 328 234 0
1 328 -263 0
1 -329 265 0
1 329 260 0
1 -329 275 0
1 329 -239 0
1 -329 -334 0
1 243 260 0
1 -243 233 0
1 243 -335 0
1 -333 331 0
1 -333 265 0
1 333 243 0
1 -333 -336 0
1 333 -253 0
1 333 252 0
1 263 -271 0
1 263 -256 0
1 263 332 0
1 -263 -270 0
1 -263 249 0
1 263 337 0
1 271 -263 0
1 -271 -329 0
1 -271 -269 0
1 275 328 0
1 -275 -251 0
1 275 -332 0
1 -275 -338 0
1 -334 328 0
1 -334 -258 0
1 332 -331 0
1 -332 250 0
1 332 -263 0
1 -337 -331 0
1 337 263 0
1 -251 271 0
1 -251 -331 0
1 -251 -264 0
1 -251 334 0
1 -338 275 0
1 -296 -220 0
1 -296 -339 0
1 296 203 0
1 340 -199 0
1 340 -296 0
1 340 341 0
1 -340 339 0
1 -340 -284 0
1 -294 283 0
1 294 342 0
1 294 291 0
1 295 205 0
1 -295 343 0
1 -295 -229 0
1 -339 -293 0
1 339 296 0
1 339 292 0
1 -342 307 0
1 342 279 0
1 283 -295 0
1 283 340 0
1 293 205 0
1 -293 292 0
1 292 286 0
1 292 -339 0
1 -306 237 0
1 306 289 0
1 -306 -343 0
1 306 -342 0
1 -306 291 0
1 -307 344 0
1 307 -339 0
1 -307 -238 0
1 307 -343 0
1 307 -345 0
1 343 306 0
1 343 346 0
1 343 -293 0
1 -343 294 0
1 343 -347 0
1 343 285 0
1 343 348 0
1 -346 306 0
1 -346 293 0
1 -346 349 0
1 -346 -314 0
1 -346 -343 0
1 346 295 0
1 346 -350 0
1 -346 348 0
1 289 293 0
1 289 -284 0
1 -289 -292 0
1 289 350 0
1 291 -306 0
1 -291 -293 0
1 -291 -294 0
1 -291 -289 0
1 -291 292 0
1 -303 -346 0
1 -303 344 0
1 -303 299 0
1 -314 -351 0
1 314 344 0
1 314 -343 0
1 -314 352 0
1 -314 -304 0
1 -314 297 0
1 348 347 0
1 348 -343 0
1 348 -301 0
1 -347 346 0
1 347 351 0
1 352 306 0
1 -352 344 0
1 352 353 0
1 352 310 0
1 352 347 0
1 352 -314 0
1 -352 354 0
1 -352 313 0
1 352 303 0
1 -344 322 0
1 344 -313 0
1 344 303 0
1 -345 -351 0
1 -345 -353 0
1 -345 355 0
1 -345 349 0
1 345 203 0
1 -345 348 0
1 351 -205 0
1 351 -314 0
1 -351 -348 0
1 -313 -320 0
1 313 -310 0
1 -313 -299 0
1 -313 -305 0
1 313 300 0
1 -313 -309 0
1 310 320 0
1 310 352 0
1 310 -313 0
1 310 -302 0
1 -322 -305 0
1 -322 -252 0
1 -322 356 0
1 -357 -344 0
1 357 355 0
1 -357 358 0
1 357 352 0
1 357 305 0
1 -357 312 0
1 -357 356 0
1 -302 359 0
1 302 347 0
1 -302 297 0
1 -302 330 0
1 -302 -348 0
1 360 327 0
1 360 -318 0
1 360 -357 0
1 -360 -215 0
1 360 -322 0
1 -360 348 0
1 305 361 0
1 305 353 0
1 -305 -357 0
1 305 -304 0
1 -305 310 0
1 -305 -362 0
1 -305 -347 0
1 305 -363 0
1 -362 -354 0
1 -362 313 0
1 321 -360 0
1 321 -358 0
1 -321 311 0
1 -321 253 0
1 321 302 0
1 -321 -312 0
1 321 -356 0
1 -318 -353 0
1 318 360 0
1 -318 358 0
1 318 -302 0
1 330 -364 0
1 -330 -324 0
1 -330 -360 0
1 330 -358 0
1 -330 -311 0
1 -330 319 0
1 -327 331 0
1 327 -364 0
1 -327 -360 0
1 -327 -358 0
1 327 330 0
1 -327 356 0
1 356 -318 0
1 -356 -321 0
1 -356 335 0
1 311 365 0
1 -311 -327 0
1 -311 356 0
1 311 300 0
1 312 -359 0
1 -312 366 0
1 312 -330 0
1 312 -321 0
1 -358 -327 0
1 358 -357 0
1 326 -365 0
1 -326 324 0
1 326 319 0
1 -326 -367 0
1 -365 -271 0
1 365 -364 0
1 365 311 0
1 -365 333 0
1 -365 -356 0
1 336 364 0
1 -336 275 0
1 -336 368 0
1 -335 319 0
1 -335 333 0
1 -335 334 0
1 -335 -356 0
1 364 -365 0
1 -364 -315 0
1 364 336 0
1 -319 364 0
1 319 -308 0
1 -369 368 0
1 -369 335 0
1 -368 -326 0
1 -350 -346 0
1 350 351 0
1 -350 370 0
1 350 371 0
1 -350 291 0
1 349 346 0
1 -349 372 0
1 349 370 0
1 349 345 0
1 -349 371 0
1 349 -291 0
1 373 374 0
1 373 -375 0
1 373 -371 0
1 -355 -376 0
1 -355 357 0
1 355 -373 0
1 -355 371 0
1 370 -361 0
1 370 355 0
1 370 -339 0
1 370 363 0
1 370 -373 0
1 -371 -373 0
1 372 355 0
1 377 -355 0
1 -377 -283 0
1 -377 373 0
1 354 -376 0
1 -354 -344 0
1 354 -362 0
1 354 374 0
1 -354 -375 0
1 354 345 0
1 -354 321 0
1 -353 362 0
1 -353 375 0
1 -353 -354 0
1 -363 378 0
1 -363 362 0
1 361 -376 0
1 361 -378 0
1 -361 -327 0
1 -361 370 0
1 361 379 0
1 -361 -305 0
1 375 359 0
1 375 355 0
1 378 346 0
1 -378 355 0
1 374 355 0
1 374 -363 0
1 376 355 0
1 376 -373 0
1 -376 -291 0
1 367 -360 0
1 -367 -305 0
1 359 380 0
1 -359 -379 0
1 366 -378 0
1 366 -358 0
1 -366 375 0
1 381 -378 0
1 381 375 0
1 -381 379 0
1 -381 312 0
1 -379 -359 0
1 -379 363 0
1 380 381 0
1 380 -359 0
1 380 -367 0
1 -382 361 0
1 382 -363 0
1 -383 361 0
1 383 -367 0
1 -383 -363 0
